StringID Type x y demand ReadyTime DueDate ServiceTime
D0 d 40 50 0 0 3390 0
Dt d 40 50 0 0 3390 0
S0 f 40 50 0 0 3390 0
S11 f 10 28 0 0 3390 0
S15 f 39 26 0 0 3390 0
S17 f 61 14 0 0 3390 0
C35 c1 5 35 10 1954 2536 90
C53 c3 44 5 20 1442 2060 90
C44 c1 32 20 10 693 1215 90
C77 c1 72 45 10 1419 1969 90
C75 c1 45 65 20 948 1570 90
P0 p 25 51 0 0 3390 45
param Q := 77.75
param CV := 700
param r := 1
param g := 3.47
param V := 1
